100 578
5 9 12 12 17 14 7 8 17 6 17 15 18 8 8 1 3 5 19 19 2 8 2 14 17 20 18 18 10 11 19 3 11 14 6 5 13 12 7 10 11 2 19 10 17 5 1 20 8 19 19 12 17 13 19 6 19 6 18 5 6 4 14 1 3 1 10 13 20 12 12 3 18 18 7 13 17 5 15 2 10 12 7 4 18 19 1 1 2 9 19 11 8 8 3 11 1 8 1 12
17 16 10 8 8 7 15 10 18 6 2 17 1 8 3 2 14 9 13 18 9 20 14 1 18 5 16 3 9 16 13 2 10 2 9 5 7 18 11 19 13 10 5 13 18 13 12 15 11 9 13 9 18 10 17 15 7 11 18 2 2 1 18 17 8 14 7 15 6 19 8 9 4 20 1 6 16 3 16 8 12 10 11 18 5 5 11 17 7 4 16 16 5 6 18 14 10 4 17 2